;; Automatically generated 30D closed-loop LQR CHC for eady
;; Note: Singleton initialization applied (all states start exactly at 0.0)
(set-logic HORN)

(declare-fun Inv (Real Real Real Real Real Real Real Real Real Real Real Real Real Real Real Real Real Real Real Real Real Real Real Real Real Real Real Real Real Real) Bool)

;; 1. Initialization
(assert
  (forall ((x0 Real) (x1 Real) (x2 Real) (x3 Real) (x4 Real) (x5 Real) (x6 Real) (x7 Real) (x8 Real) (x9 Real) (x10 Real) (x11 Real) (x12 Real) (x13 Real) (x14 Real) (x15 Real) (x16 Real) (x17 Real) (x18 Real) (x19 Real) (x20 Real) (x21 Real) (x22 Real) (x23 Real) (x24 Real) (x25 Real) (x26 Real) (x27 Real) (x28 Real) (x29 Real))
    (=>
      (and
        (= x0 0.0)
        (= x1 0.0)
        (= x2 0.0)
        (= x3 0.0)
        (= x4 0.0)
        (= x5 0.0)
        (= x6 0.0)
        (= x7 0.0)
        (= x8 0.0)
        (= x9 0.0)
        (= x10 0.0)
        (= x11 0.0)
        (= x12 0.0)
        (= x13 0.0)
        (= x14 0.0)
        (= x15 0.0)
        (= x16 0.0)
        (= x17 0.0)
        (= x18 0.0)
        (= x19 0.0)
        (= x20 0.0)
        (= x21 0.0)
        (= x22 0.0)
        (= x23 0.0)
        (= x24 0.0)
        (= x25 0.0)
        (= x26 0.0)
        (= x27 0.0)
        (= x28 0.0)
        (= x29 0.0)
      )
      (Inv x0 x1 x2 x3 x4 x5 x6 x7 x8 x9 x10 x11 x12 x13 x14 x15 x16 x17 x18 x19 x20 x21 x22 x23 x24 x25 x26 x27 x28 x29)
    )
  )
)

;; 2. Transition (Closed-Loop Affine Step)
(assert
  (forall ((x0 Real) (x1 Real) (x2 Real) (x3 Real) (x4 Real) (x5 Real) (x6 Real) (x7 Real) (x8 Real) (x9 Real) (x10 Real) (x11 Real) (x12 Real) (x13 Real) (x14 Real) (x15 Real) (x16 Real) (x17 Real) (x18 Real) (x19 Real) (x20 Real) (x21 Real) (x22 Real) (x23 Real) (x24 Real) (x25 Real) (x26 Real) (x27 Real) (x28 Real) (x29 Real)
           (x0_next Real) (x1_next Real) (x2_next Real) (x3_next Real) (x4_next Real) (x5_next Real) (x6_next Real) (x7_next Real) (x8_next Real) (x9_next Real) (x10_next Real) (x11_next Real) (x12_next Real) (x13_next Real) (x14_next Real) (x15_next Real) (x16_next Real) (x17_next Real) (x18_next Real) (x19_next Real) (x20_next Real) (x21_next Real) (x22_next Real) (x23_next Real) (x24_next Real) (x25_next Real) (x26_next Real) (x27_next Real) (x28_next Real) (x29_next Real))
    (=>
      (and
        (Inv x0 x1 x2 x3 x4 x5 x6 x7 x8 x9 x10 x11 x12 x13 x14 x15 x16 x17 x18 x19 x20 x21 x22 x23 x24 x25 x26 x27 x28 x29)

        (= x0_next (+ (* 0.961084 x0) (+ (* -0.012018 x1) (+ (* 0.002322 x2) (+ (* -0.005523 x3) (+ (* -0.000038 x4) (+ (* -0.004298 x5) (+ (* -0.000746 x6) (+ (* -0.003446 x7) (+ (* 0.000182 x8) (+ (* -0.002384 x9) (+ (* 0.001891 x10) (+ (* -0.003189 x11) (+ (* -0.000994 x12) (+ (* -0.005460 x13) (+ (* -0.006548 x14) (+ (* -0.006786 x15) (+ (* -0.010517 x16) (+ (* -0.007026 x17) (+ (* -0.011873 x18) (+ (* -0.006969 x19) (+ (* -0.011256 x20) (+ (* -0.007074 x21) (+ (* -0.009503 x22) (+ (* -0.007380 x23) (+ (* -0.007288 x24) (+ (* -0.007757 x25) (+ (* -0.005044 x26) (+ (* -0.008314 x27) (+ (* -0.002580 x28) (* -0.011844 x29)))))))))))))))))))))))))))))))
        (= x1_next (+ (* 0.007616 x0) (+ (* 0.964282 x1) (+ (* -0.011679 x2) (+ (* 0.001946 x3) (+ (* -0.005232 x4) (+ (* -0.000352 x5) (+ (* -0.003910 x6) (+ (* -0.000830 x7) (+ (* -0.002028 x8) (+ (* -0.000492 x9) (+ (* 0.000255 x10) (+ (* -0.001767 x11) (+ (* -0.002233 x12) (+ (* -0.004380 x13) (+ (* -0.007487 x14) (+ (* -0.005974 x15) (+ (* -0.011213 x16) (+ (* -0.006437 x17) (+ (* -0.012362 x18) (+ (* -0.006576 x19) (+ (* -0.011557 x20) (+ (* -0.006860 x21) (+ (* -0.009630 x22) (+ (* -0.007338 x23) (+ (* -0.007246 x24) (+ (* -0.007884 x25) (+ (* -0.004830 x26) (+ (* -0.008616 x27) (+ (* -0.002187 x28) (* -0.012332 x29)))))))))))))))))))))))))))))))
        (= x2_next (+ (* -0.006384 x0) (+ (* 0.007022 x1) (+ (* 0.968891 x2) (+ (* -0.012055 x3) (+ (* 0.002237 x4) (+ (* -0.005546 x5) (+ (* 0.000036 x6) (+ (* -0.003994 x7) (+ (* 0.000589 x8) (+ (* -0.002702 x9) (+ (* 0.002148 x10) (+ (* -0.003403 x11) (+ (* -0.000811 x12) (+ (* -0.005619 x13) (+ (* -0.006407 x14) (+ (* -0.006913 x15) (+ (* -0.010401 x16) (+ (* -0.007134 x17) (+ (* -0.011773 x18) (+ (* -0.007064 x19) (+ (* -0.011165 x20) (+ (* -0.007162 x21) (+ (* -0.009417 x22) (+ (* -0.007465 x23) (+ (* -0.007204 x24) (+ (* -0.007842 x25) (+ (* -0.004958 x26) (+ (* -0.008403 x27) (+ (* -0.002489 x28) (* -0.011939 x29)))))))))))))))))))))))))))))))
        (= x3_next (+ (* 0.001085 x0) (+ (* -0.006978 x1) (+ (* 0.007362 x2) (+ (* 0.973035 x3) (+ (* -0.011764 x4) (+ (* 0.001923 x5) (+ (* -0.005158 x6) (+ (* -0.000048 x7) (+ (* -0.002576 x8) (+ (* -0.000085 x9) (+ (* -0.000062 x10) (+ (* -0.001511 x11) (+ (* -0.002447 x12) (+ (* -0.004197 x13) (+ (* -0.007646 x14) (+ (* -0.005833 x15) (+ (* -0.011340 x16) (+ (* -0.006321 x17) (+ (* -0.012469 x18) (+ (* -0.006476 x19) (+ (* -0.011653 x20) (+ (* -0.006769 x21) (+ (* -0.009718 x22) (+ (* -0.007252 x23) (+ (* -0.007331 x24) (+ (* -0.007800 x25) (+ (* -0.004915 x26) (+ (* -0.008530 x27) (+ (* -0.002276 x28) (* -0.012241 x29)))))))))))))))))))))))))))))))
        (= x4_next (+ (* -0.004109 x0) (+ (* 0.000491 x1) (+ (* -0.006639 x2) (+ (* 0.006986 x3) (+ (* 0.977808 x4) (+ (* -0.012077 x5) (+ (* 0.002311 x6) (+ (* -0.005242 x7) (+ (* 0.001371 x8) (+ (* -0.003250 x9) (+ (* 0.002554 x10) (+ (* -0.003721 x11) (+ (* -0.000555 x12) (+ (* -0.005833 x13) (+ (* -0.006225 x14) (+ (* -0.007072 x15) (+ (* -0.010260 x16) (+ (* -0.007261 x17) (+ (* -0.011657 x18) (+ (* -0.007172 x19) (+ (* -0.011064 x20) (+ (* -0.007257 x21) (+ (* -0.009326 x22) (+ (* -0.007553 x23) (+ (* -0.007117 x24) (+ (* -0.007927 x25) (+ (* -0.004873 x26) (+ (* -0.008488 x27) (+ (* -0.002403 x28) (* -0.012027 x29)))))))))))))))))))))))))))))))
        (= x5_next (+ (* -0.000163 x0) (+ (* -0.004703 x1) (+ (* 0.000830 x2) (+ (* -0.007015 x3) (+ (* 0.007277 x4) (+ (* 0.981662 x5) (+ (* -0.011689 x6) (+ (* 0.002227 x7) (+ (* -0.003823 x8) (+ (* 0.000697 x9) (+ (* -0.000610 x10) (+ (* -0.001104 x11) (+ (* -0.002764 x12) (+ (* -0.003940 x13) (+ (* -0.007860 x14) (+ (* -0.005650 x15) (+ (* -0.011499 x16) (+ (* -0.006180 x17) (+ (* -0.012596 x18) (+ (* -0.006360 x19) (+ (* -0.011760 x20) (+ (* -0.006668 x21) (+ (* -0.009814 x22) (+ (* -0.007160 x23) (+ (* -0.007419 x24) (+ (* -0.007714 x25) (+ (* -0.005000 x26) (+ (* -0.008445 x27) (+ (* -0.002361 x28) (* -0.012155 x29)))))))))))))))))))))))))))))))
        (= x6_next (+ (* -0.003327 x0) (+ (* -0.000757 x1) (+ (* -0.004364 x2) (+ (* 0.000455 x3) (+ (* -0.006724 x4) (+ (* 0.006963 x5) (+ (* 0.985699 x6) (+ (* -0.011773 x7) (+ (* 0.003646 x8) (+ (* -0.004497 x9) (+ (* 0.003336 x10) (+ (* -0.004269 x11) (+ (* -0.000148 x12) (+ (* -0.006150 x13) (+ (* -0.005968 x14) (+ (* -0.007286 x15) (+ (* -0.010077 x16) (+ (* -0.007420 x17) (+ (* -0.011516 x18) (+ (* -0.007299 x19) (+ (* -0.010948 x20) (+ (* -0.007365 x21) (+ (* -0.009225 x22) (+ (* -0.007649 x23) (+ (* -0.007026 x24) (+ (* -0.008015 x25) (+ (* -0.004787 x26) (+ (* -0.008573 x27) (+ (* -0.002318 x28) (* -0.012112 x29)))))))))))))))))))))))))))))))
        (= x7_next (+ (* -0.000711 x0) (+ (* -0.003921 x1) (+ (* -0.000417 x2) (+ (* -0.004739 x3) (+ (* 0.000745 x4) (+ (* -0.007037 x5) (+ (* 0.007351 x6) (+ (* 0.988644 x7) (+ (* -0.010355 x8) (+ (* 0.002972 x9) (+ (* -0.001858 x10) (+ (* -0.000322 x11) (+ (* -0.003312 x12) (+ (* -0.003534 x13) (+ (* -0.008178 x14) (+ (* -0.005394 x15) (+ (* -0.011713 x16) (+ (* -0.005998 x17) (+ (* -0.012755 x18) (+ (* -0.006219 x19) (+ (* -0.011887 x20) (+ (* -0.006552 x21) (+ (* -0.009921 x22) (+ (* -0.007060 x23) (+ (* -0.007514 x24) (+ (* -0.007623 x25) (+ (* -0.005089 x26) (+ (* -0.008359 x27) (+ (* -0.002446 x28) (* -0.012070 x29)))))))))))))))))))))))))))))))
        (= x8_next (+ (* -0.002921 x0) (+ (* -0.001305 x1) (+ (* -0.003582 x2) (+ (* -0.000793 x3) (+ (* -0.004449 x4) (+ (* 0.000432 x5) (+ (* -0.006649 x6) (+ (* 0.007267 x7) (+ (* 0.992469 x8) (+ (* -0.011029 x9) (+ (* 0.005611 x10) (+ (* -0.005516 x11) (+ (* 0.000634 x12) (+ (* -0.006698 x13) (+ (* -0.005561 x14) (+ (* -0.007604 x15) (+ (* -0.009820 x16) (+ (* -0.007633 x17) (+ (* -0.011333 x18) (+ (* -0.007458 x19) (+ (* -0.010807 x20) (+ (* -0.007492 x21) (+ (* -0.009109 x22) (+ (* -0.007756 x23) (+ (* -0.006926 x24) (+ (* -0.008111 x25) (+ (* -0.004696 x26) (+ (* -0.008661 x27) (+ (* -0.002232 x28) (* -0.012197 x29)))))))))))))))))))))))))))))))
        (= x9_next (+ (* -0.001028 x0) (+ (* -0.003514 x1) (+ (* -0.000965 x2) (+ (* -0.003957 x3) (+ (* -0.000502 x4) (+ (* -0.004762 x5) (+ (* 0.000820 x6) (+ (* -0.006733 x7) (+ (* 0.008686 x8) (+ (* 0.993641 x9) (+ (* -0.008389 x10) (+ (* 0.001953 x11) (+ (* -0.004560 x12) (+ (* -0.002752 x13) (+ (* -0.008726 x14) (+ (* -0.004987 x15) (+ (* -0.012030 x16) (+ (* -0.005741 x17) (+ (* -0.012969 x18) (+ (* -0.006036 x19) (+ (* -0.012046 x20) (+ (* -0.006411 x21) (+ (* -0.010048 x22) (+ (* -0.006944 x23) (+ (* -0.007622 x24) (+ (* -0.007522 x25) (+ (* -0.005184 x26) (+ (* -0.008268 x27) (+ (* -0.002534 x28) (* -0.011984 x29)))))))))))))))))))))))))))))))
        (= x10_next (+ (* -0.002664 x0) (+ (* -0.001622 x1) (+ (* -0.003175 x2) (+ (* -0.001341 x3) (+ (* -0.003666 x4) (+ (* -0.000816 x5) (+ (* -0.004374 x6) (+ (* 0.000736 x7) (+ (* -0.005315 x8) (+ (* 0.008012 x9) (+ (* 0.997658 x10) (+ (* -0.012048 x11) (+ (* 0.002909 x12) (+ (* -0.007946 x13) (+ (* -0.004779 x14) (+ (* -0.008151 x15) (+ (* -0.009414 x16) (+ (* -0.007951 x17) (+ (* -0.011077 x18) (+ (* -0.007672 x19) (+ (* -0.010624 x20) (+ (* -0.007651 x21) (+ (* -0.008968 x22) (+ (* -0.007883 x23) (+ (* -0.006809 x24) (+ (* -0.008218 x25) (+ (* -0.004595 x26) (+ (* -0.008756 x27) (+ (* -0.002141 x28) (* -0.012286 x29)))))))))))))))))))))))))))))))
        (= x11_next (+ (* -0.001242 x0) (+ (* -0.003258 x1) (+ (* -0.001283 x2) (+ (* -0.003551 x3) (+ (* -0.001050 x4) (+ (* -0.003980 x5) (+ (* -0.000428 x6) (+ (* -0.004458 x7) (+ (* 0.002154 x8) (+ (* -0.005989 x9) (+ (* 0.010651 x10) (+ (* 0.995007 x11) (+ (* -0.011091 x12) (+ (* -0.000477 x13) (+ (* -0.009973 x14) (+ (* -0.004205 x15) (+ (* -0.012578 x16) (+ (* -0.005334 x17) (+ (* -0.013286 x18) (+ (* -0.005779 x19) (+ (* -0.012260 x20) (+ (* -0.006229 x21) (+ (* -0.010207 x22) (+ (* -0.006803 x23) (+ (* -0.007749 x24) (+ (* -0.007406 x25) (+ (* -0.005291 x26) (+ (* -0.008167 x27) (+ (* -0.002629 x28) (* -0.011893 x29)))))))))))))))))))))))))))))))
        (= x12_next (+ (* -0.002481 x0) (+ (* -0.001836 x1) (+ (* -0.002919 x2) (+ (* -0.001658 x3) (+ (* -0.003260 x4) (+ (* -0.001364 x5) (+ (* -0.003592 x6) (+ (* -0.000512 x7) (+ (* -0.003040 x8) (+ (* 0.001480 x9) (+ (* -0.003349 x10) (+ (* 0.006993 x11) (+ (* 0.996689 x12) (+ (* -0.014477 x13) (+ (* -0.002504 x14) (+ (* -0.009399 x15) (+ (* -0.008632 x16) (+ (* -0.008499 x17) (+ (* -0.010670 x18) (+ (* -0.007989 x19) (+ (* -0.010368 x20) (+ (* -0.007865 x21) (+ (* -0.008785 x22) (+ (* -0.008042 x23) (+ (* -0.006669 x24) (+ (* -0.008345 x25) (+ (* -0.004479 x26) (+ (* -0.008863 x27) (+ (* -0.002040 x28) (* -0.012381 x29)))))))))))))))))))))))))))))))
        (= x13_next (+ (* -0.001401 x0) (+ (* -0.003075 x1) (+ (* -0.001497 x2) (+ (* -0.003294 x3) (+ (* -0.001368 x4) (+ (* -0.003574 x5) (+ (* -0.000976 x6) (+ (* -0.003676 x7) (+ (* 0.000907 x8) (+ (* -0.003714 x9) (+ (* 0.004120 x10) (+ (* -0.007008 x11) (+ (* 0.007949 x12) (+ (* 0.993820 x13) (+ (* -0.016505 x14) (+ (* -0.001930 x15) (+ (* -0.013826 x16) (+ (* -0.004552 x17) (+ (* -0.013834 x18) (+ (* -0.005373 x19) (+ (* -0.012578 x20) (+ (* -0.005972 x21) (+ (* -0.010421 x22) (+ (* -0.006620 x23) (+ (* -0.007908 x24) (+ (* -0.007265 x25) (+ (* -0.005418 x26) (+ (* -0.008051 x27) (+ (* -0.002736 x28) (* -0.011792 x29)))))))))))))))))))))))))))))))
        (= x14_next (+ (* -0.002340 x0) (+ (* -0.001995 x1) (+ (* -0.002736 x2) (+ (* -0.001872 x3) (+ (* -0.003003 x4) (+ (* -0.001681 x5) (+ (* -0.003186 x6) (+ (* -0.001060 x7) (+ (* -0.002257 x8) (+ (* 0.000233 x9) (+ (* -0.001074 x10) (+ (* 0.000462 x11) (+ (* -0.006051 x12) (+ (* 0.004564 x13) (+ (* 0.992158 x14) (+ (* -0.015931 x15) (+ (* -0.006357 x16) (+ (* -0.009746 x17) (+ (* -0.009888 x18) (+ (* -0.008537 x19) (+ (* -0.009961 x20) (+ (* -0.008182 x21) (+ (* -0.008529 x22) (+ (* -0.008256 x23) (+ (* -0.006486 x24) (+ (* -0.008504 x25) (+ (* -0.004338 x26) (+ (* -0.008990 x27) (+ (* -0.001924 x28) (* -0.012488 x29)))))))))))))))))))))))))))))))
        (= x15_next (+ (* -0.001528 x0) (+ (* -0.002934 x1) (+ (* -0.001656 x2) (+ (* -0.003111 x3) (+ (* -0.001581 x4) (+ (* -0.003317 x5) (+ (* -0.001293 x6) (+ (* -0.003269 x7) (+ (* 0.000359 x8) (+ (* -0.002932 x9) (+ (* 0.002872 x10) (+ (* -0.004732 x11) (+ (* 0.001418 x12) (+ (* -0.009437 x13) (+ (* 0.002536 x14) (+ (* 0.992988 x15) (+ (* -0.020357 x16) (+ (* -0.002277 x17) (+ (* -0.015082 x18) (+ (* -0.004591 x19) (+ (* -0.013126 x20) (+ (* -0.005566 x21) (+ (* -0.010739 x22) (+ (* -0.006364 x23) (+ (* -0.008122 x24) (+ (* -0.007082 x25) (+ (* -0.005577 x26) (+ (* -0.007910 x27) (+ (* -0.002863 x28) (* -0.011676 x29)))))))))))))))))))))))))))))))
        (= x16_next (+ (* -0.002224 x0) (+ (* -0.002122 x1) (+ (* -0.002595 x2) (+ (* -0.002031 x3) (+ (* -0.002821 x4) (+ (* -0.001895 x5) (+ (* -0.002929 x6) (+ (* -0.001377 x7) (+ (* -0.001851 x8) (+ (* -0.000315 x9) (+ (* -0.000292 x10) (+ (* -0.000786 x11) (+ (* -0.003776 x12) (+ (* -0.001968 x13) (+ (* -0.011465 x14) (+ (* 0.003110 x15) (+ (* 0.988740 x16) (+ (* -0.016278 x17) (+ (* -0.007613 x18) (+ (* -0.009785 x19) (+ (* -0.009179 x20) (+ (* -0.008730 x21) (+ (* -0.008122 x22) (+ (* -0.008574 x23) (+ (* -0.006229 x24) (+ (* -0.008718 x25) (+ (* -0.004156 x26) (+ (* -0.009149 x27) (+ (* -0.001783 x28) (* -0.012615 x29)))))))))))))))))))))))))))))))
        (= x17_next (+ (* -0.001636 x0) (+ (* -0.002818 x1) (+ (* -0.001783 x2) (+ (* -0.002970 x3) (+ (* -0.001740 x4) (+ (* -0.003134 x5) (+ (* -0.001507 x6) (+ (* -0.003013 x7) (+ (* 0.000041 x8) (+ (* -0.002525 x9) (+ (* 0.002324 x10) (+ (* -0.003950 x11) (+ (* 0.000170 x12) (+ (* -0.007162 x13) (+ (* -0.003996 x14) (+ (* -0.010890 x15) (+ (* -0.001317 x16) (+ (* 0.992942 x17) (+ (* -0.021613 x18) (+ (* -0.002316 x19) (+ (* -0.014373 x20) (+ (* -0.004783 x21) (+ (* -0.011287 x22) (+ (* -0.005957 x23) (+ (* -0.008439 x24) (+ (* -0.006826 x25) (+ (* -0.005791 x26) (+ (* -0.007728 x27) (+ (* -0.003022 x28) (* -0.011535 x29)))))))))))))))))))))))))))))))
        (= x18_next (+ (* -0.002124 x0) (+ (* -0.002229 x1) (+ (* -0.002479 x2) (+ (* -0.002158 x3) (+ (* -0.002680 x4) (+ (* -0.002054 x5) (+ (* -0.002746 x6) (+ (* -0.001591 x7) (+ (* -0.001594 x8) (+ (* -0.000633 x9) (+ (* 0.000114 x10) (+ (* -0.001334 x11) (+ (* -0.002994 x12) (+ (* -0.003216 x13) (+ (* -0.009190 x14) (+ (* -0.003421 x15) (+ (* -0.015317 x16) (+ (* 0.002763 x17) (+ (* 0.987690 x18) (+ (* -0.016316 x19) (+ (* -0.006904 x20) (+ (* -0.009978 x21) (+ (* -0.007340 x22) (+ (* -0.009121 x23) (+ (* -0.005823 x24) (+ (* -0.009036 x25) (+ (* -0.003899 x26) (+ (* -0.009363 x27) (+ (* -0.001601 x28) (* -0.012774 x29)))))))))))))))))))))))))))))))
        (= x19_next (+ (* -0.001731 x0) (+ (* -0.002718 x1) (+ (* -0.001890 x2) (+ (* -0.002854 x3) (+ (* -0.001867 x4) (+ (* -0.002993 x5) (+ (* -0.001666 x6) (+ (* -0.002830 x7) (+ (* -0.000172 x8) (+ (* -0.002268 x9) (+ (* 0.002007 x10) (+ (* -0.003544 x11) (+ (* -0.000378 x12) (+ (* -0.006380 x13) (+ (* -0.005243 x14) (+ (* -0.008615 x15) (+ (* -0.007848 x16) (+ (* -0.011238 x17) (+ (* -0.002573 x18) (+ (* 0.993042 x19) (+ (* -0.020905 x20) (+ (* -0.002508 x21) (+ (* -0.012534 x22) (+ (* -0.005175 x23) (+ (* -0.008987 x24) (+ (* -0.006419 x25) (+ (* -0.006109 x26) (+ (* -0.007471 x27) (+ (* -0.003236 x28) (* -0.011353 x29)))))))))))))))))))))))))))))))
        (= x20_next (+ (* -0.002033 x0) (+ (* -0.002325 x1) (+ (* -0.002378 x2) (+ (* -0.002266 x3) (+ (* -0.002564 x4) (+ (* -0.002181 x5) (+ (* -0.002605 x6) (+ (* -0.001750 x7) (+ (* -0.001412 x8) (+ (* -0.000847 x9) (+ (* 0.000371 x10) (+ (* -0.001651 x11) (+ (* -0.002588 x12) (+ (* -0.003763 x13) (+ (* -0.008408 x14) (+ (* -0.004669 x15) (+ (* -0.013042 x16) (+ (* -0.003769 x17) (+ (* -0.016573 x18) (+ (* 0.002724 x19) (+ (* 0.988487 x20) (+ (* -0.016509 x21) (+ (* -0.005065 x22) (+ (* -0.010369 x23) (+ (* -0.005041 x24) (+ (* -0.009584 x25) (+ (* -0.003492 x26) (+ (* -0.009681 x27) (+ (* -0.001344 x28) (* -0.012988 x29)))))))))))))))))))))))))))))))
        (= x21_next (+ (* -0.001819 x0) (+ (* -0.002626 x1) (+ (* -0.001986 x2) (+ (* -0.002754 x3) (+ (* -0.001975 x4) (+ (* -0.002877 x5) (+ (* -0.001793 x6) (+ (* -0.002689 x7) (+ (* -0.000331 x8) (+ (* -0.002086 x9) (+ (* 0.001793 x10) (+ (* -0.003287 x11) (+ (* -0.000695 x12) (+ (* -0.005973 x13) (+ (* -0.005791 x14) (+ (* -0.007833 x15) (+ (* -0.009096 x16) (+ (* -0.008963 x17) (+ (* -0.009104 x18) (+ (* -0.011276 x19) (+ (* -0.001864 x20) (+ (* 0.992898 x21) (+ (* -0.019066 x22) (+ (* -0.002900 x23) (+ (* -0.010235 x24) (+ (* -0.005637 x25) (+ (* -0.006657 x26) (+ (* -0.007064 x27) (+ (* -0.003554 x28) (* -0.011096 x29)))))))))))))))))))))))))))))))
        (= x22_next (+ (* -0.001946 x0) (+ (* -0.002413 x1) (+ (* -0.002287 x2) (+ (* -0.002361 x3) (+ (* -0.002463 x4) (+ (* -0.002289 x5) (+ (* -0.002489 x6) (+ (* -0.001877 x7) (+ (* -0.001271 x8) (+ (* -0.001006 x9) (+ (* 0.000554 x10) (+ (* -0.001865 x11) (+ (* -0.002331 x12) (+ (* -0.004081 x13) (+ (* -0.008001 x14) (+ (* -0.005217 x15) (+ (* -0.012260 x16) (+ (* -0.005016 x17) (+ (* -0.014298 x18) (+ (* -0.003807 x19) (+ (* -0.015865 x20) (+ (* 0.002532 x21) (+ (* 0.990343 x22) (+ (* -0.016901 x23) (+ (* -0.002765 x24) (+ (* -0.010831 x25) (+ (* -0.002710 x26) (+ (* -0.010229 x27) (+ (* -0.000937 x28) (* -0.013306 x29)))))))))))))))))))))))))))))))
        (= x23_next (+ (* -0.001904 x0) (+ (* -0.002540 x1) (+ (* -0.002074 x2) (+ (* -0.002663 x3) (+ (* -0.002070 x4) (+ (* -0.002777 x5) (+ (* -0.001901 x6) (+ (* -0.002573 x7) (+ (* -0.000458 x8) (+ (* -0.001945 x9) (+ (* 0.001634 x10) (+ (* -0.003104 x11) (+ (* -0.000909 x12) (+ (* -0.005717 x13) (+ (* -0.006109 x14) (+ (* -0.007427 x15) (+ (* -0.009644 x16) (+ (* -0.008181 x17) (+ (* -0.010352 x18) (+ (* -0.009001 x19) (+ (* -0.008395 x20) (+ (* -0.011469 x21) (+ (* -0.000025 x22) (+ (* 0.992494 x23) (+ (* -0.016766 x24) (+ (* -0.003362 x25) (+ (* -0.007904 x26) (+ (* -0.006282 x27) (+ (* -0.004102 x28) (* -0.010689 x29)))))))))))))))))))))))))))))))
        (= x24_next (+ (* -0.001862 x0) (+ (* -0.002498 x1) (+ (* -0.002201 x2) (+ (* -0.002449 x3) (+ (* -0.002372 x4) (+ (* -0.002384 x5) (+ (* -0.002389 x6) (+ (* -0.001984 x7) (+ (* -0.001155 x8) (+ (* -0.001133 x9) (+ (* 0.000695 x10) (+ (* -0.002024 x11) (+ (* -0.002148 x12) (+ (* -0.004295 x13) (+ (* -0.007744 x14) (+ (* -0.005534 x15) (+ (* -0.011853 x16) (+ (* -0.005564 x17) (+ (* -0.013516 x18) (+ (* -0.005055 x19) (+ (* -0.013589 x20) (+ (* -0.004000 x21) (+ (* -0.014026 x22) (+ (* 0.002140 x23) (+ (* 0.992597 x24) (+ (* -0.017363 x25) (+ (* -0.000435 x26) (+ (* -0.011476 x27) (+ (* -0.000155 x28) (* -0.013854 x29)))))))))))))))))))))))))))))))
        (= x25_next (+ (* -0.001989 x0) (+ (* -0.002456 x1) (+ (* -0.002159 x2) (+ (* -0.002576 x3) (+ (* -0.002158 x4) (+ (* -0.002685 x5) (+ (* -0.001996 x6) (+ (* -0.002473 x7) (+ (* -0.000566 x8) (+ (* -0.001829 x9) (+ (* 0.001507 x10) (+ (* -0.002963 x11) (+ (* -0.001068 x12) (+ (* -0.005534 x13) (+ (* -0.006323 x14) (+ (* -0.007170 x15) (+ (* -0.009961 x16) (+ (* -0.007774 x17) (+ (* -0.010900 x18) (+ (* -0.008219 x19) (+ (* -0.009643 x20) (+ (* -0.009194 x21) (+ (* -0.006556 x22) (+ (* -0.011860 x23) (+ (* 0.002275 x24) (+ (* 0.991949 x25) (+ (* -0.014436 x26) (+ (* -0.004007 x27) (+ (* -0.005349 x28) (* -0.009907 x29)))))))))))))))))))))))))))))))
        (= x26_next (+ (* -0.001776 x0) (+ (* -0.002583 x1) (+ (* -0.002117 x2) (+ (* -0.002534 x3) (+ (* -0.002286 x4) (+ (* -0.002472 x5) (+ (* -0.002297 x6) (+ (* -0.002080 x7) (+ (* -0.001054 x8) (+ (* -0.001240 x9) (+ (* 0.000811 x10) (+ (* -0.002151 x11) (+ (* -0.002007 x12) (+ (* -0.004454 x13) (+ (* -0.007562 x14) (+ (* -0.005748 x15) (+ (* -0.011597 x16) (+ (* -0.005882 x17) (+ (* -0.013110 x18) (+ (* -0.005603 x19) (+ (* -0.012807 x20) (+ (* -0.005247 x21) (+ (* -0.011750 x22) (+ (* -0.004391 x23) (+ (* -0.011726 x24) (+ (* 0.001678 x25) (+ (* 0.994797 x26) (+ (* -0.018008 x27) (+ (* 0.002120 x28) (* -0.015101 x29)))))))))))))))))))))))))))))))
        (= x27_next (+ (* -0.002077 x0) (+ (* -0.002369 x1) (+ (* -0.002244 x2) (+ (* -0.002492 x3) (+ (* -0.002243 x4) (+ (* -0.002599 x5) (+ (* -0.002084 x6) (+ (* -0.002381 x7) (+ (* -0.000661 x8) (+ (* -0.001728 x9) (+ (* 0.001399 x10) (+ (* -0.002847 x11) (+ (* -0.001195 x12) (+ (* -0.005393 x13) (+ (* -0.006482 x14) (+ (* -0.006987 x15) (+ (* -0.010175 x16) (+ (* -0.007517 x17) (+ (* -0.011217 x18) (+ (* -0.007813 x19) (+ (* -0.010191 x20) (+ (* -0.008412 x21) (+ (* -0.007804 x22) (+ (* -0.009585 x23) (+ (* -0.004257 x24) (+ (* -0.012323 x25) (+ (* 0.004605 x26) (+ (* 0.991107 x27) (+ (* -0.011881 x28) (* -0.007632 x29)))))))))))))))))))))))))))))))
        (= x28_next (+ (* -0.001684 x0) (+ (* -0.002671 x1) (+ (* -0.002030 x2) (+ (* -0.002619 x3) (+ (* -0.002201 x4) (+ (* -0.002557 x5) (+ (* -0.002211 x6) (+ (* -0.002168 x7) (+ (* -0.000963 x8) (+ (* -0.001335 x9) (+ (* 0.000911 x10) (+ (* -0.002259 x11) (+ (* -0.001891 x12) (+ (* -0.004581 x13) (+ (* -0.007421 x14) (+ (* -0.005907 x15) (+ (* -0.011414 x16) (+ (* -0.006096 x17) (+ (* -0.012853 x18) (+ (* -0.005920 x19) (+ (* -0.012401 x20) (+ (* -0.005795 x21) (+ (* -0.010968 x22) (+ (* -0.005639 x23) (+ (* -0.009451 x24) (+ (* -0.004853 x25) (+ (* -0.009396 x26) (+ (* 0.001033 x27) (+ (* 0.997064 x28) (* -0.021633 x29)))))))))))))))))))))))))))))))
        (= x29_next (+ (* -0.002173 x0) (+ (* -0.002278 x1) (+ (* -0.002332 x2) (+ (* -0.002406 x3) (+ (* -0.002328 x4) (+ (* -0.002515 x5) (+ (* -0.002169 x6) (+ (* -0.002295 x7) (+ (* -0.000749 x8) (+ (* -0.001637 x9) (+ (* 0.001304 x10) (+ (* -0.002747 x11) (+ (* -0.001303 x12) (+ (* -0.005277 x13) (+ (* -0.006609 x14) (+ (* -0.006846 x15) (+ (* -0.010334 x16) (+ (* -0.007335 x17) (+ (* -0.011431 x18) (+ (* -0.007556 x19) (+ (* -0.010508 x20) (+ (* -0.008005 x21) (+ (* -0.008352 x22) (+ (* -0.008803 x23) (+ (* -0.005504 x24) (+ (* -0.010047 x25) (+ (* -0.001927 x26) (+ (* -0.012968 x27) (+ (* 0.007160 x28) (* 0.987067 x29)))))))))))))))))))))))))))))))
      )
      (Inv x0_next x1_next x2_next x3_next x4_next x5_next x6_next x7_next x8_next x9_next x10_next x11_next x12_next x13_next x14_next x15_next x16_next x17_next x18_next x19_next x20_next x21_next x22_next x23_next x24_next x25_next x26_next x27_next x28_next x29_next)
    )
  )
)

;; 3. Safety Query (Actuator Saturation > 12.0V or < -12.0V)
(assert
  (forall ((x0 Real) (x1 Real) (x2 Real) (x3 Real) (x4 Real) (x5 Real) (x6 Real) (x7 Real) (x8 Real) (x9 Real) (x10 Real) (x11 Real) (x12 Real) (x13 Real) (x14 Real) (x15 Real) (x16 Real) (x17 Real) (x18 Real) (x19 Real) (x20 Real) (x21 Real) (x22 Real) (x23 Real) (x24 Real) (x25 Real) (x26 Real) (x27 Real) (x28 Real) (x29 Real))
    (=>
      (and
        (Inv x0 x1 x2 x3 x4 x5 x6 x7 x8 x9 x10 x11 x12 x13 x14 x15 x16 x17 x18 x19 x20 x21 x22 x23 x24 x25 x26 x27 x28 x29)
        (or
          (> (+ (* -0.190411 x0) (+ (* -0.249793 x1) (+ (* -0.215880 x2) (+ (* -0.253419 x3) (+ (* -0.224336 x4) (+ (* -0.255704 x5) (+ (* -0.216904 x6) (+ (* -0.225294 x7) (+ (* -0.083435 x8) (+ (* -0.150862 x9) (+ (* 0.113102 x10) (+ (* -0.252717 x11) (+ (* -0.157105 x12) (+ (* -0.495685 x13) (+ (* -0.698453 x14) (+ (* -0.641014 x15) (+ (* -1.083691 x16) (+ (* -0.675763 x17) (+ (* -1.209306 x18) (+ (* -0.679598 x19) (+ (* -1.138423 x20) (+ (* -0.698872 x21) (+ (* -0.954519 x22) (+ (* -0.738016 x23) (+ (* -0.724580 x24) (+ (* -0.784220 x25) (+ (* -0.491533 x26) (+ (* -0.848762 x27) (+ (* -0.236057 x28) (* -1.211244 x29)))))))))))))))))))))))))))))) 12.0)
          (< (+ (* -0.190411 x0) (+ (* -0.249793 x1) (+ (* -0.215880 x2) (+ (* -0.253419 x3) (+ (* -0.224336 x4) (+ (* -0.255704 x5) (+ (* -0.216904 x6) (+ (* -0.225294 x7) (+ (* -0.083435 x8) (+ (* -0.150862 x9) (+ (* 0.113102 x10) (+ (* -0.252717 x11) (+ (* -0.157105 x12) (+ (* -0.495685 x13) (+ (* -0.698453 x14) (+ (* -0.641014 x15) (+ (* -1.083691 x16) (+ (* -0.675763 x17) (+ (* -1.209306 x18) (+ (* -0.679598 x19) (+ (* -1.138423 x20) (+ (* -0.698872 x21) (+ (* -0.954519 x22) (+ (* -0.738016 x23) (+ (* -0.724580 x24) (+ (* -0.784220 x25) (+ (* -0.491533 x26) (+ (* -0.848762 x27) (+ (* -0.236057 x28) (* -1.211244 x29)))))))))))))))))))))))))))))) -12.0)
        )
      )
      false
    )
  )
)

(check-sat)
(get-model)
